param set_len = 16;
param target_sum = 4655809212;
param values := [1] 534380628 [2] 633885387 [3] 689969184 [4] 115296288 [5] 374653256 [6] 385083396 [7] 766569113 [8] 790782919 [9] 579525999 [10] 1030079484 [11] 774406117 [12] 746387322 [13] 426538939 [14] 744364022 [15] 372795772 [16] 447240474 ;
